c Reduced graph for GEOM70a_1 generated by Cyril Grelier
p edge 68 441
e 1 2
e 1 7
e 1 8
e 1 13
e 1 15
e 1 17
e 1 20
e 1 21
e 1 25
e 1 26
e 1 27
e 1 29
e 1 32
e 1 34
e 1 38
e 1 43
e 1 44
e 1 45
e 1 46
e 1 47
e 2 7
e 2 8
e 2 13
e 2 15
e 2 17
e 2 20
e 2 21
e 2 25
e 2 26
e 2 27
e 2 29
e 2 32
e 2 38
e 2 43
e 2 44
e 2 45
e 2 46
e 2 47
e 2 49
e 3 4
e 3 5
e 3 6
e 3 9
e 3 10
e 3 11
e 3 12
e 3 16
e 3 18
e 3 19
e 3 30
e 3 31
e 3 33
e 3 39
e 3 41
e 3 50
e 3 52
e 3 56
e 3 61
e 4 5
e 4 6
e 4 9
e 4 10
e 4 11
e 4 12
e 4 16
e 4 18
e 4 19
e 4 23
e 4 30
e 4 33
e 4 39
e 4 41
e 4 50
e 4 52
e 4 56
e 4 61
e 5 6
e 5 9
e 5 10
e 5 11
e 5 12
e 5 16
e 5 18
e 5 19
e 5 30
e 5 31
e 5 33
e 5 50
e 5 54
e 5 58
e 5 61
e 6 9
e 6 10
e 6 11
e 6 12
e 6 16
e 6 18
e 6 19
e 6 30
e 6 31
e 6 33
e 6 41
e 6 51
e 6 54
e 6 58
e 7 8
e 7 13
e 7 15
e 7 17
e 7 20
e 7 23
e 7 25
e 7 26
e 7 27
e 7 29
e 7 34
e 7 39
e 7 47
e 7 52
e 7 56
e 8 13
e 8 15
e 8 17
e 8 23
e 8 25
e 8 27
e 8 29
e 8 34
e 8 39
e 8 41
e 8 47
e 8 48
e 8 52
e 8 56
e 9 10
e 9 11
e 9 12
e 9 16
e 9 18
e 9 19
e 9 30
e 9 31
e 9 33
e 9 51
e 9 54
e 9 58
e 10 11
e 10 12
e 10 16
e 10 18
e 10 19
e 10 30
e 10 31
e 10 33
e 10 51
e 10 54
e 10 58
e 11 12
e 11 16
e 11 18
e 11 19
e 11 31
e 11 33
e 11 40
e 11 41
e 11 51
e 11 55
e 12 16
e 12 18
e 12 29
e 12 33
e 12 39
e 12 40
e 12 41
e 12 52
e 12 56
e 13 15
e 13 17
e 13 20
e 13 21
e 13 25
e 13 26
e 13 27
e 13 32
e 13 34
e 13 44
e 13 46
e 13 47
e 14 22
e 14 24
e 14 28
e 14 35
e 14 36
e 14 37
e 14 40
e 14 42
e 14 43
e 14 45
e 14 49
e 14 53
e 14 55
e 14 57
e 14 59
e 14 60
e 15 17
e 15 20
e 15 21
e 15 25
e 15 26
e 15 27
e 15 32
e 15 34
e 15 44
e 15 46
e 15 47
e 16 18
e 16 22
e 16 29
e 16 35
e 16 40
e 16 41
e 16 51
e 16 55
e 17 20
e 17 21
e 17 25
e 17 26
e 17 27
e 17 32
e 17 34
e 17 44
e 17 46
e 17 47
e 18 19
e 18 30
e 18 31
e 18 51
e 18 54
e 18 58
e 19 30
e 19 31
e 19 33
e 19 50
e 19 54
e 19 58
e 19 61
e 20 21
e 20 25
e 20 26
e 20 27
e 20 32
e 20 34
e 20 44
e 20 46
e 20 47
e 21 32
e 21 37
e 21 38
e 21 43
e 21 44
e 21 45
e 21 46
e 21 49
e 21 57
e 22 24
e 22 28
e 22 35
e 22 36
e 22 37
e 22 40
e 22 42
e 22 51
e 22 53
e 22 55
e 22 59
e 22 60
e 22 67
e 23 39
e 23 41
e 23 48
e 23 50
e 23 52
e 23 56
e 23 62
e 23 63
e 23 64
e 23 65
e 23 66
e 23 68
e 24 28
e 24 35
e 24 36
e 24 37
e 24 40
e 24 42
e 24 43
e 24 45
e 24 49
e 24 53
e 24 57
e 24 59
e 24 60
e 25 26
e 25 27
e 25 32
e 25 34
e 25 46
e 25 47
e 26 27
e 26 32
e 26 34
e 26 44
e 26 46
e 26 47
e 27 32
e 27 34
e 27 46
e 27 47
e 28 36
e 28 37
e 28 38
e 28 42
e 28 43
e 28 45
e 28 49
e 28 53
e 28 57
e 28 59
e 28 60
e 29 37
e 29 38
e 29 39
e 29 41
e 29 43
e 29 45
e 29 52
e 29 56
e 30 31
e 30 33
e 30 50
e 30 54
e 30 58
e 30 61
e 31 33
e 31 54
e 31 58
e 31 61
e 32 38
e 32 44
e 32 46
e 33 50
e 33 61
e 34 47
e 34 48
e 34 63
e 35 36
e 35 40
e 35 42
e 35 51
e 35 53
e 35 55
e 35 59
e 35 60
e 35 67
e 36 40
e 36 42
e 36 53
e 36 55
e 36 59
e 36 60
e 36 67
e 37 38
e 37 43
e 37 45
e 37 49
e 37 53
e 37 57
e 38 43
e 38 44
e 38 45
e 38 49
e 38 57
e 39 41
e 39 48
e 39 50
e 39 52
e 39 56
e 40 42
e 40 51
e 40 55
e 40 67
e 41 52
e 41 56
e 42 53
e 42 55
e 42 59
e 42 60
e 42 67
e 43 45
e 43 49
e 43 57
e 44 46
e 44 49
e 45 49
e 45 57
e 48 52
e 48 62
e 48 63
e 48 64
e 48 65
e 48 66
e 48 68
e 49 57
e 50 61
e 50 62
e 50 64
e 51 55
e 51 67
e 52 56
e 53 57
e 53 59
e 53 60
e 54 58
e 54 61
e 55 67
e 59 60
e 62 63
e 62 64
e 62 65
e 62 66
e 62 68
e 63 64
e 63 65
e 63 66
e 63 68
e 64 65
e 64 66
e 64 68
e 65 66
e 65 68
e 66 68
